old_seq_benchmarks/modules/CoreAddresses/CoreAddresses.seqArray.smt2
(set-option :print-success false)
(set-info :smt-lib-version 2.6)
(set-option :strings-exp true)
(set-option :strings-seq-update true)
(set-logic ALL)
; done setting options


(declare-datatypes ((T@$Location 0)) ((($Global (|a#$Global| Int) ) ($Local (|i#$Local| Int) ) ($Param (|i#$Param| Int) ) ) ))
(declare-datatypes ((T@$Mutation_3430 0)) ((($Mutation_3430 (|l#$Mutation_3430| T@$Location) (|p#$Mutation_3430| (Seq Int)) (|v#$Mutation_3430| Int) ) ) ))
(declare-datatypes ((T@$Mutation_7257 0)) ((($Mutation_7257 (|l#$Mutation_7257| T@$Location) (|p#$Mutation_7257| (Seq Int)) (|v#$Mutation_7257| (Seq Int)) ) ) ))
(declare-datatypes ((T@$Range 0)) ((($Range (|lb#$Range| Int) (|ub#$Range| Int) ) ) ))
(declare-fun $MAX_U8 () Int)
(declare-fun $MAX_U64 () Int)
(declare-fun $MAX_U128 () Int)
(declare-fun |$IsValid'u8'| (Int) Bool)
(declare-fun |$IsValid'u64'| (Int) Bool)
(declare-fun |$IsValid'u128'| (Int) Bool)
(declare-fun |$IsValid'num'| (Int) Bool)
(declare-fun |$IsValid'address'| (Int) Bool)
(declare-fun $InRange (T@$Range Int) Bool)
(declare-sort |T@[Int]Bool| 0)
(declare-fun $ConstMemoryDomain (Bool) |T@[Int]Bool|)
(declare-fun |lambda#0| (Bool) |T@[Int]Bool|)
(declare-fun $EXEC_FAILURE_CODE () Int)
(declare-fun $shl (Int Int) Int)
(declare-fun $shr (Int Int) Int)
(declare-fun |$IsValid'vec'u8''| ((Seq Int)) Bool)
(declare-fun |$IndexOfVec'u8'| ((Seq Int) Int) Int)
(declare-fun $1_Hash_sha2 ((Seq Int)) (Seq Int))
(declare-fun $1_Hash_sha3 ((Seq Int)) (Seq Int))
(declare-fun $1_Signature_$ed25519_validate_pubkey ((Seq Int)) Bool)
(declare-fun $1_Signature_$ed25519_verify ((Seq Int) (Seq Int) (Seq Int)) Bool)
(declare-fun ReverseVec_3283 ((Seq Int)) (Seq Int))
(declare-fun |Select__T@[Int]Bool_| (|T@[Int]Bool| Int) Bool)
(assert (= $MAX_U8 255))
(assert (= $MAX_U64 18446744073709551615))
(assert (= $MAX_U128 340282366920938463463374607431768211455))
(assert (forall ((v Int) ) (! (= (|$IsValid'u8'| v)  (and (>= v 0) (<= v $MAX_U8)))
 :qid |CoreAddressesseqArraybpl.160:23|
 :skolemid |4|
 :pattern ( (|$IsValid'u8'| v))
)))
(assert (forall ((v@@0 Int) ) (! (= (|$IsValid'u64'| v@@0)  (and (>= v@@0 0) (<= v@@0 $MAX_U64)))
 :qid |CoreAddressesseqArraybpl.164:24|
 :skolemid |5|
 :pattern ( (|$IsValid'u64'| v@@0))
)))
(assert (forall ((v@@1 Int) ) (! (= (|$IsValid'u128'| v@@1)  (and (>= v@@1 0) (<= v@@1 $MAX_U128)))
 :qid |CoreAddressesseqArraybpl.168:25|
 :skolemid |6|
 :pattern ( (|$IsValid'u128'| v@@1))
)))
(assert (forall ((v@@2 Int) ) (! (= (|$IsValid'num'| v@@2) true)
 :qid |CoreAddressesseqArraybpl.172:24|
 :skolemid |7|
 :pattern ( (|$IsValid'num'| v@@2))
)))
(assert (forall ((v@@3 Int) ) (! (= (|$IsValid'address'| v@@3) (>= v@@3 0))
 :qid |CoreAddressesseqArraybpl.176:28|
 :skolemid |8|
 :pattern ( (|$IsValid'address'| v@@3))
)))
(assert (forall ((r T@$Range) (i Int) ) (! (= ($InRange r i)  (and (<= (|lb#$Range| r) i) (< i (|ub#$Range| r))))
 :qid |CoreAddressesseqArraybpl.186:19|
 :skolemid |9|
 :pattern ( ($InRange r i))
)))
(assert (= ($ConstMemoryDomain false) (|lambda#0| false)))
(assert (= ($ConstMemoryDomain true) (|lambda#0| true)))
(assert (= $EXEC_FAILURE_CODE (- 0 1)))
(assert (forall ((src1 Int) (p Int) ) (! (= ($shl src1 p) (ite (= p 8) (* src1 256) (ite (= p 16) (* src1 65536) (ite (= p 32) (* src1 4294967296) (ite (= p 64) (* src1 18446744073709551616) (- 0 1))))))
 :qid |CoreAddressesseqArraybpl.452:15|
 :skolemid |13|
 :pattern ( ($shl src1 p))
)))
(assert (forall ((src1@@0 Int) (p@@0 Int) ) (! (= ($shr src1@@0 p@@0) (ite (= p@@0 8) (div src1@@0 256) (ite (= p@@0 16) (div src1@@0 65536) (ite (= p@@0 32) (div src1@@0 4294967296) (ite (= p@@0 64) (div src1@@0 18446744073709551616) (- 0 1))))))
 :qid |CoreAddressesseqArraybpl.461:15|
 :skolemid |14|
 :pattern ( ($shr src1@@0 p@@0))
)))
(assert (forall ((v@@4 (Seq Int)) ) (! (= (|$IsValid'vec'u8''| v@@4)  (and (|$IsValid'u64'| (seq.len v@@4)) (forall ((i@@0 Int) ) (!  (=> (and (>= i@@0 0) (< i@@0 (seq.len v@@4))) (|$IsValid'u8'| (seq.nth v@@4 i@@0)))
 :qid |CoreAddressesseqArraybpl.590:13|
 :skolemid |15|
))))
 :qid |CoreAddressesseqArraybpl.588:28|
 :skolemid |16|
 :pattern ( (|$IsValid'vec'u8''| v@@4))
)))
(assert (forall ((v@@5 (Seq Int)) (e Int) ) (! (let ((i@@1 (|$IndexOfVec'u8'| v@@5 e)))
(ite  (not (exists ((i@@2 Int) ) (!  (and (and (|$IsValid'u64'| i@@2) (and (>= i@@2 0) (< i@@2 (seq.len v@@5)))) (= (seq.nth v@@5 i@@2) e))
 :qid |CoreAddressesseqArraybpl.595:13|
 :skolemid |17|
))) (= i@@1 (- 0 1))  (and (and (and (|$IsValid'u64'| i@@1) (and (>= i@@1 0) (< i@@1 (seq.len v@@5)))) (= (seq.nth v@@5 i@@1) e)) (forall ((j Int) ) (!  (=> (and (and (|$IsValid'u64'| j) (>= j 0)) (< j i@@1)) (not (= (seq.nth v@@5 j) e)))
 :qid |CoreAddressesseqArraybpl.603:17|
 :skolemid |18|
)))))
 :qid |CoreAddressesseqArraybpl.599:15|
 :skolemid |19|
 :pattern ( (|$IndexOfVec'u8'| v@@5 e))
)))
(assert (forall ((v1 (Seq Int)) (v2 (Seq Int)) ) (! (= (= v1 v2) (= ($1_Hash_sha2 v1) ($1_Hash_sha2 v2)))
 :qid |CoreAddressesseqArraybpl.776:15|
 :skolemid |20|
 :pattern ( ($1_Hash_sha2 v1) ($1_Hash_sha2 v2))
)))
(assert (forall ((v1@@0 (Seq Int)) (v2@@0 (Seq Int)) ) (! (= (= v1@@0 v2@@0) (= ($1_Hash_sha3 v1@@0) ($1_Hash_sha3 v2@@0)))
 :qid |CoreAddressesseqArraybpl.792:15|
 :skolemid |21|
 :pattern ( ($1_Hash_sha3 v1@@0) ($1_Hash_sha3 v2@@0))
)))
(assert (forall ((k1 (Seq Int)) (k2 (Seq Int)) ) (!  (=> (= k1 k2) (= ($1_Signature_$ed25519_validate_pubkey k1) ($1_Signature_$ed25519_validate_pubkey k2)))
 :qid |CoreAddressesseqArraybpl.839:15|
 :skolemid |22|
 :pattern ( ($1_Signature_$ed25519_validate_pubkey k1) ($1_Signature_$ed25519_validate_pubkey k2))
)))
(assert (forall ((s1 (Seq Int)) (s2 (Seq Int)) (k1@@0 (Seq Int)) (k2@@0 (Seq Int)) (m1 (Seq Int)) (m2 (Seq Int)) ) (!  (=> (and (and (= s1 s2) (= k1@@0 k2@@0)) (= m1 m2)) (= ($1_Signature_$ed25519_verify s1 k1@@0 m1) ($1_Signature_$ed25519_verify s2 k2@@0 m2)))
 :qid |CoreAddressesseqArraybpl.842:15|
 :skolemid |23|
 :pattern ( ($1_Signature_$ed25519_verify s1 k1@@0 m1) ($1_Signature_$ed25519_verify s2 k2@@0 m2))
)))
(assert (forall ((v@@6 (Seq Int)) ) (! (let ((r@@0 (ReverseVec_3283 v@@6)))
 (and (= (seq.len r@@0) (seq.len v@@6)) (forall ((i@@3 Int) ) (!  (=> (and (>= i@@3 0) (< i@@3 (seq.len r@@0))) (= (seq.nth r@@0 i@@3) (seq.nth v@@6 (- (- (seq.len v@@6) i@@3) 1))))
 :qid |CoreAddressesseqArraybpl.67:18|
 :skolemid |0|
 :pattern ( (seq.nth r@@0 i@@3))
))))
 :qid |CoreAddressesseqArraybpl.64:32|
 :skolemid |1|
 :pattern ( (ReverseVec_3283 v@@6))
)))
(assert (forall ((|l#0| Bool) (i@@4 Int) ) (! (= (|Select__T@[Int]Bool_| (|lambda#0| |l#0|) i@@4) |l#0|)
 :qid |CoreAddressesseqArraybpl.245:54|
 :skolemid |24|
 :pattern ( (|Select__T@[Int]Bool_| (|lambda#0| |l#0|) i@@4))
)))
(declare-fun ControlFlow (Int Int) Int)
(declare-fun $t5@0 () Bool)
(declare-fun $t7 () Int)
(declare-fun _$t0 () Int)
(declare-fun $t3 () Int)
(push 1)
(set-info :boogie-vc-id $1_CoreAddresses_assert_currency_info$verify)
(assert (not
 (=> (= (ControlFlow 0 0) 10594) (let ((anon4_Else_correct  (=> (and (not $t5@0) (= $t7 $t7)) (and (=> (= (ControlFlow 0 9947) (- 0 10732)) (not (= _$t0 173345816))) (=> (not (= _$t0 173345816)) (=> (= (ControlFlow 0 9947) (- 0 10741)) (and (not (= _$t0 173345816)) (= 2 $t7))))))))
(let ((anon4_Then_correct  (=> (and $t5@0 (= (ControlFlow 0 9967) (- 0 10705))) (not (not (= _$t0 173345816))))))
(let ((anon0$1_correct  (=> (|$IsValid'address'| _$t0) (=> (and (= _$t0 _$t0) (|$IsValid'address'| $t3)) (=> (and (and (and (= $t3 _$t0) (|$IsValid'address'| 173345816)) (and (= $t5@0 (= $t3 173345816)) (|$IsValid'u64'| 3))) (and (and (|$IsValid'u64'| $t7) (= $t7 2)) (and (= $t7 $t7) (= $t5@0 $t5@0)))) (and (=> (= (ControlFlow 0 9899) 9967) anon4_Then_correct) (=> (= (ControlFlow 0 9899) 9947) anon4_Else_correct)))))))
(let ((anon0_correct  (=> (= (ControlFlow 0 10594) 9899) anon0$1_correct)))
anon0_correct)))))
))
(check-sat)
(pop 1)
; Valid
(declare-fun $t5@0@@0 () Bool)
(declare-fun $t7@@0 () Int)
(declare-fun _$t0@@0 () Int)
(declare-fun $t3@@0 () Int)
(push 1)
(set-info :boogie-vc-id $1_CoreAddresses_assert_diem_root$verify)
(assert (not
 (=> (= (ControlFlow 0 0) 10784) (let ((anon4_Else_correct@@0  (=> (and (not $t5@0@@0) (= $t7@@0 $t7@@0)) (and (=> (= (ControlFlow 0 10137) (- 0 10922)) (not (= _$t0@@0 173345816))) (=> (not (= _$t0@@0 173345816)) (=> (= (ControlFlow 0 10137) (- 0 10931)) (and (not (= _$t0@@0 173345816)) (= 2 $t7@@0))))))))
(let ((anon4_Then_correct@@0  (=> (and $t5@0@@0 (= (ControlFlow 0 10157) (- 0 10895))) (not (not (= _$t0@@0 173345816))))))
(let ((anon0$1_correct@@0  (=> (|$IsValid'address'| _$t0@@0) (=> (and (= _$t0@@0 _$t0@@0) (|$IsValid'address'| $t3@@0)) (=> (and (and (and (= $t3@@0 _$t0@@0) (|$IsValid'address'| 173345816)) (and (= $t5@0@@0 (= $t3@@0 173345816)) (|$IsValid'u64'| 0))) (and (and (|$IsValid'u64'| $t7@@0) (= $t7@@0 2)) (and (= $t7@@0 $t7@@0) (= $t5@0@@0 $t5@0@@0)))) (and (=> (= (ControlFlow 0 10089) 10157) anon4_Then_correct@@0) (=> (= (ControlFlow 0 10089) 10137) anon4_Else_correct@@0)))))))
(let ((anon0_correct@@0  (=> (= (ControlFlow 0 10784) 10089) anon0$1_correct@@0)))
anon0_correct@@0)))))
))
(check-sat)
(pop 1)
; Valid
(declare-fun $t5@0@@1 () Bool)
(declare-fun $t7@@1 () Int)
(declare-fun _$t0@@1 () Int)
(declare-fun $t3@@1 () Int)
(push 1)
(set-info :boogie-vc-id $1_CoreAddresses_assert_treasury_compliance$verify)
(assert (not
 (=> (= (ControlFlow 0 0) 10962) (let ((anon4_Else_correct@@1  (=> (and (not $t5@0@@1) (= $t7@@1 $t7@@1)) (and (=> (= (ControlFlow 0 10331) (- 0 11106)) (not (= _$t0@@1 186537453))) (=> (not (= _$t0@@1 186537453)) (=> (= (ControlFlow 0 10331) (- 0 11115)) (and (not (= _$t0@@1 186537453)) (= 2 $t7@@1))))))))
(let ((anon4_Then_correct@@1  (=> (and $t5@0@@1 (= (ControlFlow 0 10351) (- 0 11079))) (not (not (= _$t0@@1 186537453))))))
(let ((anon0$1_correct@@1  (=> (|$IsValid'address'| _$t0@@1) (=> (and (= _$t0@@1 _$t0@@1) (|$IsValid'address'| $t3@@1)) (=> (and (and (and (= $t3@@1 _$t0@@1) (|$IsValid'address'| 186537453)) (and (= $t5@0@@1 (= $t3@@1 186537453)) (|$IsValid'u64'| 1))) (and (and (|$IsValid'u64'| $t7@@1) (= $t7@@1 2)) (and (= $t7@@1 $t7@@1) (= $t5@0@@1 $t5@0@@1)))) (and (=> (= (ControlFlow 0 10283) 10351) anon4_Then_correct@@1) (=> (= (ControlFlow 0 10283) 10331) anon4_Else_correct@@1)))))))
(let ((anon0_correct@@1  (=> (= (ControlFlow 0 10962) 10283) anon0$1_correct@@1)))
anon0_correct@@1)))))
))
(check-sat)
(pop 1)
; Valid
(declare-fun $t5@0@@2 () Bool)
(declare-fun $t7@@2 () Int)
(declare-fun _$t0@@2 () Int)
(declare-fun $t3@@2 () Int)
(push 1)
(set-info :boogie-vc-id $1_CoreAddresses_assert_vm$verify)
(assert (not
 (=> (= (ControlFlow 0 0) 11146) (let ((anon4_Else_correct@@2  (=> (and (not $t5@0@@2) (= $t7@@2 $t7@@2)) (and (=> (= (ControlFlow 0 10521) (- 0 11284)) (not (= _$t0@@2 0))) (=> (not (= _$t0@@2 0)) (=> (= (ControlFlow 0 10521) (- 0 11293)) (and (not (= _$t0@@2 0)) (= 2 $t7@@2))))))))
(let ((anon4_Then_correct@@2  (=> (and $t5@0@@2 (= (ControlFlow 0 10541) (- 0 11257))) (not (not (= _$t0@@2 0))))))
(let ((anon0$1_correct@@2  (=> (|$IsValid'address'| _$t0@@2) (=> (and (= _$t0@@2 _$t0@@2) (|$IsValid'address'| $t3@@2)) (=> (and (and (and (= $t3@@2 _$t0@@2) (|$IsValid'address'| 0)) (and (= $t5@0@@2 (= $t3@@2 0)) (|$IsValid'u64'| 2))) (and (and (|$IsValid'u64'| $t7@@2) (= $t7@@2 2)) (and (= $t7@@2 $t7@@2) (= $t5@0@@2 $t5@0@@2)))) (and (=> (= (ControlFlow 0 10473) 10541) anon4_Then_correct@@2) (=> (= (ControlFlow 0 10473) 10521) anon4_Else_correct@@2)))))))
(let ((anon0_correct@@2  (=> (= (ControlFlow 0 11146) 10473) anon0$1_correct@@2)))
anon0_correct@@2)))))
))
(check-sat)
(pop 1)
; Valid
